
Gurobi 6.5.2 (win64) logging started 07/22/16 22:12:08


Gurobi 6.5.2 (win64) logging started 07/22/16 22:12:08

Optimize a model with 3756 rows, 783 columns and 9381 nonzeros
Coefficient statistics:
  Matrix range    [6e-08, 4e+02]
  Objective range [1e+00, 1e+00]
  Bounds range    [1e+00, 1e+00]
  RHS range       [6e-06, 2e+03]
Presolve removed 3080 rows and 81 columns
Presolve time: 0.02s
Presolved: 676 rows, 702 columns, 3379 nonzeros
Variable types: 288 continuous, 414 integer (414 binary)

Root relaxation: objective 1.685130e+02, 2510 iterations, 0.13 seconds

    Nodes    |    Current Node    |     Objective Bounds      |     Work
 Expl Unexpl |  Obj  Depth IntInf | Incumbent    BestBd   Gap | It/Node Time

     0     0  168.51299    0  193          -  168.51299      -     -    0s
H    0     0                    1.234042e+07  169.20658   100%     -    0s
     0     0  175.53589    0  134 1.2340e+07  175.53589   100%     -    0s
H    0     0                     183.0852991  175.53589  4.12%     -    0s
     0     0  176.19217    0  119  183.08530  176.19217  3.76%     -    0s
H    0     0                     179.8775899  176.19217  2.05%     -    0s
     0     0  176.25417    0  120  179.87759  176.25417  2.01%     -    0s
H    0     0                     179.6072818  176.25417  1.87%     -    0s
     0     0  176.29501    0  120  179.60728  176.29501  1.84%     -    0s
     0     0  176.29564    0  120  179.60728  176.29564  1.84%     -    0s
     0     0  176.31976    0  122  179.60728  176.31976  1.83%     -    0s
     0     0  176.32205    0  122  179.60728  176.32205  1.83%     -    0s
H    0     0                     178.8633955  176.32205  1.42%     -    0s
     0     0  176.32950    0  120  178.86340  176.32950  1.42%     -    0s
     0     0  176.32950    0  120  178.86340  176.32950  1.42%     -    0s
     0     0  176.32950    0   92  178.86340  176.32950  1.42%     -    0s
     0     0  176.32950    0   95  178.86340  176.32950  1.42%     -    0s
     0     0  176.32950    0   96  178.86340  176.32950  1.42%     -    0s
     0     0  176.32950    0  100  178.86340  176.32950  1.42%     -    0s
     0     0  176.32950    0  102  178.86340  176.32950  1.42%     -    0s
     0     0  176.33265    0  102  178.86340  176.33265  1.41%     -    0s
     0     0  176.33265    0  104  178.86340  176.33265  1.41%     -    0s
     0     0  176.34121    0  104  178.86340  176.34121  1.41%     -    0s
     0     0  176.34140    0  105  178.86340  176.34140  1.41%     -    0s
     0     0  176.67158    0  111  178.86340  176.67158  1.23%     -    0s
     0     0  176.67158    0  113  178.86340  176.67158  1.23%     -    0s
     0     0  176.67158    0  113  178.86340  176.67158  1.23%     -    0s
     0     0  176.95525    0  108  178.86340  176.95525  1.07%     -    0s
     0     0  176.95525    0  108  178.86340  176.95525  1.07%     -    0s
     0     2  176.95525    0  108  178.86340  176.95525  1.07%     -    0s
H  226   153                     178.8471958  177.29913  0.87%  17.8    0s
*  387   230              25     178.8324557  177.77254  0.59%  15.5    0s
H  399   236                     178.7907226  177.77254  0.57%  15.4    0s
H  464   252                     178.6984506  177.77254  0.52%  14.8    0s
* 1239   538              24     178.6787948  178.03582  0.36%  13.1    1s
* 1309   539              23     178.6447527  178.04604  0.34%  13.0    1s
* 1340   501              23     178.5830847  178.04740  0.30%  12.8    1s
* 3073   476              20     178.4671514  178.23390  0.13%  12.5    1s

Cutting planes:
  MIR: 22

Explored 4286 nodes (55856 simplex iterations) in 2.14 seconds
Thread count was 8 (of 8 available processors)

Optimal solution found (tolerance 1.00e-04)
Best objective 1.784671513805e+02, best bound 1.784546063075e+02, gap 0.0070%

Wrote requested result file 'H1\instance30\\Results30E_Sol6.lp'

